BEGIN IONS
PEPMASS=667.115
CHARGE=1+
MSLEVEL=2
SOURCE_INSTRUMENT=LC-ESI-qTof
FILENAME=20120412_PAVL_FT_Hectochlorin_MCl37H_667_qb.1.1..mgf
SEQ=*..*
IONMODE=positive
ORGANISM=GNPS-LIBRARY
NAME=Hectochlorin M+H
PI=Gerwick
DATACOLLECTOR=PAVL
SMILES=C[C@H]1[C@@H](OC(C2=CSC([C@H](C(C)(OC(C3=CSC([C@H](C(C)(O)C)OC1=O)=N3)=O)C)OC(C)=O)=N2)=O)CCCC([37Cl])(Cl)C
INCHI=InChI=1S/C27H34Cl2N2O9S2/c1-13-17(9-8-10-27(7,28)29)38-23(34)15-11-42-21(30-15)19(37-14(2)32)26(5,6)40-24(35)16-12-41-20(31-16)18(25(3,4)36)39-22(13)33/h11-13,17-19,36H,8-10H2,1-7H3/t13-,17-,18+,19+/m0/s1/i28+2/t13-,17-,18+,19+,27?
INCHIAUX=N/A
PUBMED=N/A
SUBMITUSER=mwang87
LIBRARYQUALITY=1
SPECTRUMID=CCMSLIB00000001552
SCANS=1
COMPOUND_NAME=Hectochlorin
ADDUCT=[M+H]+
PRECURSOR_MZ=667.115
PARENT_MASS=666.107724
INCHIKEY=USXIYWCPCGVOKF-LERJCCFDSA-N
200.205383 0.00909036521644146 
201.312088 0.0026245507648769593 
202.184189 0.00303714066765311 
209.032486 0.0013445730195015418 
218.05217 0.007395614300507857 
219.180054 0.0020055605010596243 
220.168564 0.00777332327630502 
242.027893 0.009095219357671514 
243.193573 0.0016782967491202137 
244.113144 0.001057116830311362 
275.189453 0.0016169087935518503 
319.200684 0.0010177495710839357 
363.149353 0.002668977157389954 
364.372101 0.0011972417603344804 
370.071411 0.02369166587075674 
371.081238 0.014353620445969223 
372.117126 0.023564530721917082 
380.917419 0.0025019160553376102 
382.427826 0.0010287453563017999 
388.262695 0.0010542175960147491 
389.123352 0.001628747289136929 
390.22522 0.0032998613573107603 
406.049622 0.04658535724349656 
407.048828 0.05377146646334146 
408.105499 0.1713769941165522 
423.149506 0.0010387673387082285 
424.263 0.0044941198090448576 
425.219299 0.007600164180603954 
425.968079 0.01711109696815953 
430.053955 0.0024304715907874134 
440.986481 0.001035123926092915 
465.396118 0.0016157074704048994 
466.358398 0.01015424063538649 
467.167389 0.01584472538750484 
468.067596 0.019833853414117256 
504.178986 0.0012307977075609528 
507.081726 0.0019468427164037309 
508.185944 0.001363133820231098 
509.079987 0.004343604667952062 
511.124298 0.001764595580551206 
512.039185 0.0018275123144220287 
525.199768 0.007251833254738845 
526.47644 0.002718860388449844 
527.241821 0.003175115944668139 
544.256226 0.0031354533020105193 
545.137817 0.008782844219783821 
547.123718 0.001942295538367453 
548.071167 0.007392537652413062 
549.103882 0.018461061278836045 
553.132324 0.0010281399224307615 
561.092285 0.002220894367426956 
562.148865 0.014896922661442685 
563.066345 0.04302652977188435 
565.9552 0.0010207358278040517 
567.140869 0.003062590379086057 
569.247192 0.03350336338205904 
570.125854 0.020218937360935545 
571.176636 0.0406763350939361 
587.070068 0.0032832014257677335 
588.076172 0.0033597029884350404 
588.984314 0.02136179053891002 
589.602722 0.0019553039177711454 
605.033691 0.039278607519343804 
606.080688 0.4582267301267453 
607.065552 1.0 
607.994751 0.005485147182491802 
609.033203 0.007660995897037148 
623.19751 0.006265165961807534 
624.035645 0.014528966880939052 
624.927429 0.04795760478954476 
629.005005 0.02703820917363681 
630.078735 0.03840105789896165 
631.136719 0.03844558619247433 
648.021484 0.0049611655260285254 
648.940125 0.008695544915636087 
END IONS

BEGIN IONS
PEPMASS=553.13
CHARGE=1+
MSLEVEL=2
SOURCE_INSTRUMENT=LC-ESI-qTof
FILENAME=f.avosu677/CentellaCompounds/Data11152016CAWCPPstandars_pos16-11152016_Pos_CPPMeOH.mzXML;
SEQ=*..*
IONMODE=positive
ORGANISM=GNPS-LIBRARY
NAME=1-Caffeoyl-5-feruloylquinic acid M+Na
PI=Claudia Maier
DATACOLLECTOR=Armando Alcazar
SMILES=COC1=C(C=CC(=C1)/C=C/C(=O)O[C@@H]2C[C@](C[C@H]([C@@H]2O)O)(C(=O)O)OC(=O)/C=C/C3=CC(=C(C=C3)O)O)O
INCHI="InChI=1S/C26H26O12/c1-36-20-11-15(3-7-17(20)28)4-8-22(31)37-21-13-26(25(34)35,12-19(30)24(21)33)38-23(32)9-5-14-2-6-16(27)18(29)10-14/h2-11,19,21,24,27-30,33H,12-13H2,1H3,(H,34,35)/b8-4+,9-5+/t19-,21-,24+,26-/m1/s1"
INCHIAUX=
PUBMED=
SUBMITUSER=avosu677
LIBRARYQUALITY=3
SPECTRUMID=CCMSLIB00005466100
SCANS=4883
COMPOUND_NAME=1-Caffeoyl-5-feruloylquinic acid
ADDUCT=[M+Na]+
PRECURSOR_MZ=553.13
PARENT_MASS=530.140782
INCHIKEY=DJXURFUTIYZESV-BQYLRUKMSA-N
85.02803 0.016001187667382184 
129.055313 0.0459978388567799 
145.029266 0.06269267596433978 
161.054718 0.007340711744514789 
161.131821 0.0073424723800101935 
163.036118 0.10635397136066775 
173.132004 0.03044391811724879 
175.03656 0.02295816276392192 
177.053406 0.20319187164872246 
179.032654 0.015479163337496023 
185.023346 0.03540583933842426 
187.073196 0.01582293765422655 
187.1418 0.00791291828052112 
189.054108 0.047718872337040856 
197.026535 0.024357630501701356 
197.041962 0.06901610889761468 
199.034805 0.2040109766042006 
201.157654 0.03281555145257424 
203.059113 0.024727675137823778 
203.108887 0.024730737824685548 
209.137589 0.01673005800647026 
213.166183 0.008445211619296756 
215.051834 0.16116639497467788 
233.091202 0.01766217938274871 
241.067337 0.03592366271012837 
241.114502 0.026945379796837077 
245.038284 0.01810916788452144 
267.121063 0.028361340185257176 
269.120819 0.018978201187048294 
275.094604 0.02878151789348594 
283.089111 0.09732244355439452 
287.155029 0.029405659082105542 
295.078949 0.06955415910501019 
299.055084 0.0700211942844236 
311.078369 0.02040404570124957 
331.07373 0.052624092906262014 
331.089142 0.021050166172053658 
337.089996 0.021239995434467435 
341.060455 0.016023551832674968 
345.100555 0.01611817575430006 
345.119446 0.03223720316483975 
347.097809 0.06465906833163933 
351.11264 0.04335466639404932 
359.070221 0.16441148367377445 
359.093262 0.05480568406511377 
361.013428 0.03297117525236335 
363.083221 0.060620588144299846 
373.086731 0.11172702963152815 
375.185455 0.033612103895706576 
377.081177 0.41447227473237974 
391.068176 0.05719339241196237 
391.096985 0.487309142813072 
391.143158 0.05719932124963061 
407.089661 0.04668275882050131 
429.316925 0.011985063456333185 
431.135132 0.04804167461887032 
444.147186 0.024380625220171565 
473.299133 0.09437997124644755 
475.140961 0.01891270554661926 
478.258698 0.012649781151370122 
493.155975 0.16698865277793315 
493.253235 0.012846546498735562 
507.13739 0.02605218893751282 
507.256683 0.039082881531063034 
509.147461 0.05220756749306093 
521.256165 0.03961852417178109 
521.296509 0.0660331255952688 
535.137329 0.09366674190176051 
535.169983 0.013381288349200153 
535.196167 0.026763190873573123 
535.219971 0.05352769198751491 
535.289307 0.013382762369614911 
553.051331 0.04080895124774109 
553.091614 0.034008541686255445 
553.125488 0.6937940907143936 
553.142334 0.2122249389874289 
553.178955 0.3265081001761962 
553.198303 0.32787572907301693 
553.252563 1.0 
553.302185 0.17687960818703038 
553.333374 0.23131251248925214 
655.182861 0.04441748424710288 
655.216431 0.19988365393086277 
END IONS

BEGIN IONS
PEPMASS=212.082
CHARGE=1+
MSLEVEL=2
SOURCE_INSTRUMENT=LC-ESI-qTof
FILENAME=Mirapex.mgf
SEQ=*..*
IONMODE=positive
ORGANISM=GNPS-SELLECKCHEM-FDA-PART1
NAME=Mirapex M+H
PI=Sirenas
DATACOLLECTOR=Ed Esquenazi
SMILES=CCCN[C@H]1CCC2=C(C1)SC(=N2)N.O.Cl.Cl
INCHI=InChI=1S/C10H17N3S.2ClH.H2O/c1-2-5-12-7-3-4-8-9(6-7)14-10(11)13-8;;;/h7,12H,2-6H2,1H3,(H2,11,13);2*1H;1H2/t7-;;;/m0.../s1
INCHIAUX=N/A
PUBMED=N/A
SUBMITUSER=mwang87
LIBRARYQUALITY=3
SPECTRUMID=CCMSLIB00000004358
SCANS=9
COMPOUND_NAME=Mirapex
ADDUCT=[M+H]+
PRECURSOR_MZ=212.082
PARENT_MASS=211.074724
INCHIKEY=APVQOOKHDZVJEX-QTPLPEIMSA-N
100.014992 0.0011342343185684908 
101.037804 0.003944419217290448 
102.034523 0.012761687591187757 
103.053871 0.035656755654822424 
103.592148 0.0014595890682750335 
103.667282 0.0011910122547782811 
104.012688 0.002009545773506212 
104.049942 1.0 
104.304283 0.0016985394565326786 
104.316963 0.0014139885475526884 
104.359894 0.0011222830302226202 
104.467148 0.001678789401548508 
104.500916 0.0017574871135694824 
104.622803 0.0011635949135511336 
104.677437 0.00158654722225602 
106.063126 0.0025167600195462802 
107.061729 0.0029560705642738454 
113.038857 0.06769507783023682 
115.053719 0.15539471213969305 
115.099403 0.0023863151335036525 
115.144135 0.0019337598703185331 
115.453423 0.0021123473294944765 
115.579025 0.001953993687809278 
116.049835 0.7309224819347212 
116.229729 0.0016291403588605 
116.273766 0.00142170362143795 
116.301788 0.0012880212054036074 
116.352211 0.0018872414148384672 
116.393051 0.0014964404037767708 
116.533257 0.0012309482660348653 
116.565697 0.0011294563268885419 
116.873055 0.0010412404495956358 
116.984276 0.0010691677096139334 
117.057182 0.21895202202553285 
117.104385 0.004035719843914248 
117.199593 0.0018060885437175887 
117.222397 0.0010477802932881205 
117.246758 0.0013980413073264697 
117.295479 0.0010204184284001298 
117.323555 0.0012037445896471233 
117.467316 0.0010743684692578026 
117.5159 0.0010070721382102069 
118.028488 0.003785671502299514 
118.064575 0.1257919394290835 
118.527534 0.0018280582776644327 
119.025185 0.004747295790084128 
120.044289 0.0032667400868939423 
121.036858 0.0038165954779089154 
126.035751 0.00116955269713875 
127.02581 0.001178442854064695 
127.043015 0.0034662776263745467 
128.000626 0.002766254333529911 
128.049286 0.02882800803692318 
129.043289 0.01200540338101298 
129.056503 0.021280095397948638 
129.587143 0.001998893764567731 
130.064941 0.11927048989540778 
130.168716 0.0011697748967995642 
130.220169 0.0012051142445431123 
131.036499 0.002543830118621371 
133.077545 0.002111944831731402 
134.045486 0.00484092855665787 
135.923874 0.00103021290851517 
138.033859 0.0035664477350551885 
139.041199 0.012560645679069789 
139.266312 0.0021412517529880303 
139.48912 0.0018522596466815273 
140.049835 0.3501135578552941 
140.103561 0.0026644019085431373 
140.133759 0.0030666718066009926 
140.225601 0.0024851857420487644 
140.269455 0.0016253706533235306 
140.290787 0.0012789970664967543 
140.461838 0.001056511599529397 
140.511597 0.002485000771867543 
140.578751 0.0010361961126268962 
141.107437 0.001954922548609923 
141.342453 0.0014644153258415696 
141.398575 0.0010721497835717584 
141.498596 0.001791331727137775 
142.052689 0.6678707558865162 
142.234573 0.004351508236038317 
142.250534 0.0010926061318155271 
142.280273 0.0018194833940982857 
142.31012 0.0024238368203662107 
142.322449 0.0017028833863255504 
142.359482 0.0012852341447573679 
142.39299 0.0033883629842178255 
142.423492 0.002019104000935532 
142.462021 0.0014566658919425333 
142.479111 0.0032187437829413216 
142.579025 0.0016584854292973044 
142.649155 0.0024322372919138285 
142.815781 0.0011522104182804557 
142.833099 0.002087958746226739 
143.060608 0.48191243544686085 
143.311569 0.001249628856393286 
143.343719 0.0016215962021315536 
143.443237 0.0032188526754903302 
143.535965 0.001091597073124058 
143.592575 0.001376432353524262 
143.785919 0.001127716253385808 
143.919266 0.0010603415270605309 
144.045319 0.011570686556756585 
144.809738 0.0012869355540475994 
145.037262 0.004133141666525222 
145.075424 0.10655103083472545 
145.445984 0.001007240958449193 
152.048813 0.008919020956188808 
153.046707 0.0109168537909522 
154.053589 0.006354605069057652 
155.060303 0.044825730407406054 
156.043488 0.005355247416124333 
156.066727 0.02610672717225823 
156.276123 0.0010414377069766433 
157.0755 0.0822096460490788 
158.061493 0.005613598299568624 
158.109131 0.001430184070148251 
158.265747 0.0012563551049999005 
159.055878 0.01014259094269185 
161.068787 0.0024023318663059104 
165.043716 0.007338809845552163 
165.116531 0.001331293117826247 
166.051956 0.12202723849801764 
166.340668 0.003036951645478483 
166.413193 0.0010547291830118291 
167.059738 0.14616885787916728 
167.13295 0.001080601795140038 
167.173325 0.0013539088494624782 
167.224777 0.0018400412404983766 
167.292313 0.0011051582053701325 
167.314301 0.0010748599940372957 
168.06601 0.24472639732926227 
168.125214 0.001809427387925509 
168.186844 0.0029849725965458837 
168.198685 0.0020249129033927983 
168.277618 0.0018462360493202029 
168.349579 0.0017666914034265022 
168.410812 0.0011709462274618698 
168.472961 0.0011141712342939449 
169.044785 0.00820601384554796 
169.142349 0.0013867043053938898 
169.440781 0.0010669177908960961 
171.05455 0.026015037769804055 
172.207153 0.0014798026891409788 
177.042679 0.004851096692725707 
180.054657 0.003974758263329163 
181.063614 0.006282092196304186 
182.070419 0.04601324437868337 
182.147644 0.001317393057521384 
183.053665 0.0037321448548021576 
183.077789 0.01892166518144845 
184.064896 0.004826647482795547 
184.08667 0.1038006051736226 
184.814636 0.001181371916480925 
185.069366 0.016261671471374913 
186.948807 0.0014424914665597975 
191.049835 0.001729241269269289 
192.056 0.009987823728611473 
193.0625 0.015294698168212478 
194.045837 0.0038903334654147716 
194.070496 0.007419831530581905 
195.054855 0.026279330470833844 
208.916443 0.0013266622046635057 
210.06604 0.05628148132014066 
212.081589 0.14125798907301426 
212.360275 0.001202928962382237 
END IONS

BEGIN IONS
PEPMASS=850.636
CHARGE=1+
MSLEVEL=2
SOURCE_INSTRUMENT=LC-ESI-qTof
FILENAME=B9.mgf
SEQ=*..*
IONMODE=positive
ORGANISM=GNPS-LIBRARY
NAME=Halovir C M+H
PI=Fenical-Jensen-Moore
DATACOLLECTOR=Max
SMILES=CCCCCCCCCCCCCC(=O)NC(C)(C)C(=O)N1CCC[C@H]1C(=O)N[C@@H](CC(C)C)C(=O)N[C@@H](C(C)C)C(=O)NC(CCC(N)=O)C(=O)N[C@H](CO)CC(C)C
INCHI=InChI=1S/C45H83N7O8/c1-10-11-12-13-14-15-16-17-18-19-20-23-38(55)51-45(8,9)44(60)52-26-21-22-36(52)42(58)49-35(28-31(4)5)41(57)50-39(32(6)7)43(59)48-34(24-25-37(46)54)40(56)47-33(29-53)27-30(2)3/h30-36,39,53H,10-29H2,1-9H3,(H2,46,54)(H,47,56)(H,48,59)(H,49,58)(H,50,57)(H,51,55)/t33-,34?,35-,36-,39-/m0/s1
INCHIAUX=VCAGNEUDNVLWPT-WTPQGBEESA-N
PUBMED=N/A
SUBMITUSER=mwang87
LIBRARYQUALITY=1
SPECTRUMID=CCMSLIB00000001598
SCANS=1
COMPOUND_NAME=Halovir C
ADDUCT=[M+H]+
PRECURSOR_MZ=850.636
PARENT_MASS=849.6287239999999
INCHIKEY=VCAGNEUDNVLWPT-WTPQGBEESA-N
183.147507 0.021904932307473816 
184.150513 0.0020254061557134165 
211.142197 0.04985878990837781 
212.144791 0.005893586945705436 
228.167358 0.014519990592612636 
229.153503 0.013235723473611443 
230.155334 0.0013845974746605329 
246.179642 0.017318418872448022 
247.183884 0.002751141362698521 
282.216522 0.002829049513705679 
296.2565 0.003866768613113225 
310.211243 0.129748262410888 
310.376465 0.0017452958630801265 
311.213074 0.02229805322230284 
312.215149 0.0029588758960756236 
327.236603 0.014478490507960943 
328.229706 0.004441393131468636 
345.247589 0.01531349993964832 
346.250946 0.0035052556446966234 
393.309448 0.0525290106157057 
394.313416 0.01173660413433144 
395.315552 0.0014818480501012637 
410.275726 0.00385133927770476 
420.259216 0.00178652635144783 
438.269653 0.1407986276867022 
438.461334 0.0017914759322192441 
439.272247 0.03748459130170653 
440.274109 0.0054611977549504495 
478.395477 0.0027687428703603903 
506.393677 0.14528504130292758 
506.600922 0.0016846625745114117 
507.396393 0.04949494434066861 
508.398071 0.008962421900188275 
537.37384 0.022833413161207846 
538.362976 0.0213611063305996 
539.364014 0.006167002674672496 
540.359192 0.0014282651725791096 
555.384827 1.0 
555.599365 0.011620189674226561 
555.664429 0.005704956783736007 
556.387939 0.34790179293489415 
556.602722 0.006187228556764297 
557.391052 0.06746422864878694 
558.392212 0.007902640756063695 
605.462036 0.3667804407876744 
605.686646 0.004107017222277733 
606.465088 0.16087393729671493 
607.468018 0.03360897369575635 
608.468628 0.004706586666637426 
621.462585 0.001575752083003991 
622.48407 0.0016152932820419437 
733.518372 0.02054366747939526 
734.522461 0.010943178327643355 
735.531372 0.0030365043470989353 
832.62439 0.10494649979600192 
833.623474 0.08376832403170974 
834.621948 0.03029476127227305 
835.622192 0.006555539343731034 
850.635437 0.2467053597061022 
850.896423 0.0029213567923834435 
851.638245 0.15342210071012244 
852.646301 0.09674439560309224 
853.651855 0.03177768709143101 
854.652649 0.0031065773252986887 
END IONS

BEGIN IONS
PEPMASS=431.208
CHARGE=1+
MSLEVEL=2
SOURCE_INSTRUMENT=LC-ESI-qTof
FILENAME=p2-E10_GE10_01_18034.mzXML
SEQ=*..*
IONMODE=positive
ORGANISM=GNPS-NIH-NATURALPRODUCTSLIBRARY
NAME=MLS001142717-01! M+H
PI=Dorrestein
DATACOLLECTOR=VVP/LMS
SMILES=CC(NC(=O)[C@H](C)N1C(=O)N2CCc3c([nH]c4ccccc34)[C@@]2(C)C1=O)c5ccccc5
INCHI=InChI=1S/C25H26N4O3/c1-15(17-9-5-4-6-10-17)26-22(30)16(2)29-23(31)25(3)21-19(13-14-28(25)24(29)32)18-11-7-8-12-20(18)27-21/h4-12,15-16,27H,13-14H2,1-3H3,(H,26,30)/t15?,16-,25-/m0/s1
INCHIAUX=N/A
PUBMED=N/A
SUBMITUSER=vphelan
LIBRARYQUALITY=1
SPECTRUMID=CCMSLIB00000080550
SCANS=2299
COMPOUND_NAME=
ADDUCT=[M+H]+
PRECURSOR_MZ=431.208
PARENT_MASS=430.20072400000004
INCHIKEY=AFZQGJCVAKLESL-VNIRGASOSA-N
95.221458 0.0025384823116392113 
96.019188 0.0028085336213880636 
96.4431 0.002160410477990818 
96.552589 0.0024304617877396704 
96.834412 0.003078584931136916 
96.883385 0.002268431001890359 
96.971558 0.0023764515257899002 
97.285408 0.0024304617877396704 
97.397713 0.0025384823116392113 
97.959923 0.0023224412638401296 
98.086037 0.0025384823116392113 
98.131378 0.002484472049689441 
98.231773 0.002268431001890359 
98.429321 0.0028625438833378342 
98.547836 0.002268431001890359 
98.719803 0.0023224412638401296 
98.834534 0.0031325951930866866 
98.961212 0.0024304617877396704 
99.206879 0.002592492573588982 
99.260414 0.0029165541452876045 
99.381409 0.002268431001890359 
99.440941 0.0028625438833378342 
99.645477 0.0022144207399405888 
99.953667 0.0023224412638401296 
99.983513 0.0029165541452876045 
100.264511 0.002592492573588982 
100.338074 0.002268431001890359 
100.613396 0.002268431001890359 
101.10511 0.005076964623278423 
101.425568 0.0023224412638401296 
101.668251 0.0027005130974885228 
101.742523 0.0024304617877396704 
102.053932 0.003942749122333243 
102.10421 0.0023764515257899002 
102.793175 0.003078584931136916 
102.827484 0.0023764515257899002 
102.922363 0.0025384823116392113 
102.999107 0.002268431001890359 
103.021332 0.0026465028355387526 
103.053215 0.08463408047529031 
103.107819 0.002484472049689441 
103.916176 0.003078584931136916 
104.057159 0.008047529030515798 
104.224548 0.003078584931136916 
104.56237 0.002268431001890359 
104.692955 0.002268431001890359 
104.719536 0.003078584931136916 
104.741547 0.0031866054550364568 
104.828743 0.0029165541452876045 
104.924515 0.0024304617877396704 
105.015907 0.007453416149068323 
105.030159 0.002268431001890359 
105.070122 0.6670807453416149 
105.3125 0.0023224412638401296 
105.35891 0.002268431001890359 
105.405289 0.004590872265730489 
105.441391 0.0029165541452876045 
105.674507 0.0028085336213880636 
105.778877 0.0022144207399405888 
105.893539 0.002484472049689441 
105.909927 0.0022144207399405888 
106.043106 0.0026465028355387526 
106.072884 0.06670267350796652 
106.14151 0.0023764515257899002 
106.18412 0.0024304617877396704 
106.223549 0.003078584931136916 
106.543793 0.0023224412638401296 
107.074051 0.004212800432082096 
107.205063 0.0027005130974885228 
107.233131 0.0024304617877396704 
107.325897 0.002268431001890359 
107.767609 0.0028085336213880636 
108.355202 0.002268431001890359 
108.63092 0.002592492573588982 
108.749199 0.002268431001890359 
109.378998 0.002268431001890359 
110.248734 0.0023764515257899002 
110.332344 0.002484472049689441 
110.979286 0.0028085336213880636 
112.266197 0.0027005130974885228 
112.504623 0.0023764515257899002 
112.723351 0.0023224412638401296 
112.831276 0.003672697812584391 
113.018204 0.002268431001890359 
113.128258 0.0023764515257899002 
113.591423 0.0032406157169862274 
114.229622 0.002484472049689441 
114.244507 0.0026465028355387526 
114.791893 0.002484472049689441 
116.079216 0.0024304617877396704 
116.173584 0.002592492573588982 
116.264114 0.0025384823116392113 
116.691162 0.002160410477990818 
116.759972 0.0024304617877396704 
117.071152 0.004806913313529571 
117.639084 0.0023764515257899002 
118.283272 0.002592492573588982 
118.766472 0.0023224412638401296 
119.59214 0.002268431001890359 
120.079979 0.00356467728868485 
120.554359 0.002484472049689441 
120.690292 0.0024304617877396704 
120.984825 0.0030245746691871457 
121.0746 0.0028625438833378342 
121.219185 0.002484472049689441 
121.493256 0.0026465028355387526 
121.565666 0.0023764515257899002 
121.736893 0.0027005130974885228 
122.420807 0.002268431001890359 
123.104431 0.0022144207399405888 
123.201614 0.0022144207399405888 
123.274529 0.003456656764785309 
123.539848 0.003888738860383473 
123.725746 0.0023764515257899002 
124.304237 0.0028625438833378342 
124.452957 0.0023224412638401296 
124.597328 0.0022144207399405888 
125.445068 0.0025384823116392113 
125.541084 0.002268431001890359 
125.809074 0.002268431001890359 
125.83786 0.0023764515257899002 
125.942818 0.0027545233594382934 
126.054527 0.0024304617877396704 
126.331291 0.0022144207399405888 
126.866989 0.0024304617877396704 
127.050888 0.003402646502835539 
127.603363 0.0028085336213880636 
127.713554 0.002268431001890359 
127.760796 0.0023224412638401296 
128.319321 0.0036186875506346206 
128.649216 0.0023764515257899002 
128.682571 0.0027005130974885228 
128.849701 0.0031866054550364568 
128.867783 0.0025384823116392113 
128.973984 0.0022144207399405888 
129.163925 0.0022144207399405888 
129.179764 0.0028085336213880636 
130.066818 0.003294625978935998 
130.170212 0.0027005130974885228 
130.263321 0.0023764515257899002 
130.54744 0.0025384823116392113 
130.793152 0.0022144207399405888 
131.105179 0.0022144207399405888 
131.225983 0.002970564407237375 
131.486038 0.0023224412638401296 
131.675537 0.0027545233594382934 
132.496719 0.002484472049689441 
132.542542 0.002592492573588982 
133.222641 0.0028625438833378342 
133.348038 0.002484472049689441 
133.406952 0.0023224412638401296 
133.502075 0.0028625438833378342 
134.401505 0.002268431001890359 
134.425842 0.002484472049689441 
134.589737 0.002970564407237375 
135.019547 0.002268431001890359 
135.15509 0.003456656764785309 
135.225464 0.0025384823116392113 
136.424683 0.0023764515257899002 
136.513046 0.0024304617877396704 
136.636322 0.0023224412638401296 
136.761978 0.0022144207399405888 
137.199905 0.0027545233594382934 
137.293182 0.0024304617877396704 
138.171448 0.0024304617877396704 
138.909393 0.0030245746691871457 
139.316757 0.0023224412638401296 
140.042358 0.0023764515257899002 
140.235565 0.0022144207399405888 
140.405304 0.002160410477990818 
141.148575 0.0027545233594382934 
142.068359 0.0026465028355387526 
142.823532 0.002160410477990818 
142.956772 0.002268431001890359 
143.069855 0.0044288414798811775 
143.304825 0.0022144207399405888 
143.571396 0.002592492573588982 
143.75032 0.0026465028355387526 
143.917404 0.002268431001890359 
143.972321 0.0023764515257899002 
144.034424 0.0023224412638401296 
144.080521 0.10775047258979206 
144.114456 0.0027005130974885228 
144.232758 0.0024304617877396704 
144.381805 0.0022144207399405888 
144.443176 0.0023224412638401296 
144.464706 0.0025384823116392113 
144.579559 0.0026465028355387526 
144.799805 0.0027005130974885228 
144.83223 0.0027545233594382934 
145.083435 0.019011612206319202 
145.785828 0.0023764515257899002 
145.870972 0.0028085336213880636 
146.052704 0.0027545233594382934 
146.068939 0.002160410477990818 
146.085419 0.0028085336213880636 
146.10994 0.002592492573588982 
147.506729 0.002268431001890359 
147.700165 0.002160410477990818 
147.830811 0.0027005130974885228 
148.232803 0.003078584931136916 
149.863434 0.0027005130974885228 
151.287094 0.002592492573588982 
151.311584 0.0022144207399405888 
151.571198 0.0026465028355387526 
151.774658 0.0028085336213880636 
152.457077 0.0025384823116392113 
152.865295 0.0027545233594382934 
153.005859 0.002484472049689441 
153.386169 0.003078584931136916 
153.685837 0.002484472049689441 
154.061356 0.0022144207399405888 
154.318146 0.003078584931136916 
154.473953 0.0028625438833378342 
154.761032 0.0025384823116392113 
154.803131 0.0022144207399405888 
155.084869 0.0025384823116392113 
155.259109 0.002592492573588982 
155.29631 0.0024304617877396704 
155.544327 0.002268431001890359 
155.584152 0.0024304617877396704 
155.72818 0.0032406157169862274 
156.135773 0.0027005130974885228 
156.314896 0.0025384823116392113 
156.601196 0.002484472049689441 
157.007431 0.003402646502835539 
157.249435 0.0029165541452876045 
157.349289 0.0023764515257899002 
158.094162 0.004590872265730489 
158.111679 0.002484472049689441 
159.116852 0.0028085336213880636 
160.229706 0.0025384823116392113 
160.503204 0.0022144207399405888 
160.881653 0.0022144207399405888 
161.326263 0.0022144207399405888 
161.414764 0.0028625438833378342 
162.141312 0.002268431001890359 
162.760284 0.0023224412638401296 
162.816803 0.0027005130974885228 
163.945694 0.0033486362408857683 
166.018982 0.0022144207399405888 
166.527634 0.002484472049689441 
166.735245 0.003078584931136916 
167.072311 0.006211180124223602 
167.785446 0.003078584931136916 
168.04689 0.003402646502835539 
168.080048 0.039643532271131515 
168.552017 0.0026465028355387526 
168.828613 0.002268431001890359 
169.012283 0.0022144207399405888 
169.080933 0.013124493653794221 
169.188278 0.002484472049689441 
170.057632 0.006319200648123143 
170.096466 0.010315960032406157 
170.215012 0.0025384823116392113 
170.456589 0.002268431001890359 
170.760757 0.002484472049689441 
171.092529 0.0060491493383742915 
171.346451 0.002268431001890359 
171.440247 0.003456656764785309 
171.953018 0.0025384823116392113 
172.173325 0.002592492573588982 
173.313858 0.0032406157169862274 
173.423935 0.002268431001890359 
173.526169 0.0024304617877396704 
173.654663 0.002268431001890359 
173.709747 0.0026465028355387526 
174.886932 0.0027005130974885228 
174.921722 0.002484472049689441 
176.453873 0.002970564407237375 
176.734238 0.003078584931136916 
177.0466 0.002160410477990818 
177.414902 0.0026465028355387526 
177.78093 0.0027005130974885228 
178.330688 0.0024304617877396704 
178.366257 0.0025384823116392113 
178.421066 0.0029165541452876045 
178.695007 0.0028625438833378342 
178.748215 0.0027005130974885228 
178.995773 0.003078584931136916 
179.691452 0.0026465028355387526 
180.07695 0.0035106670267350797 
180.233459 0.0026465028355387526 
180.337677 0.0025384823116392113 
181.301178 0.0022144207399405888 
182.085922 0.006859303267620848 
183.091644 0.045530650823656496 
183.284348 0.002592492573588982 
183.589584 0.0028085336213880636 
184.054626 0.0023764515257899002 
184.067154 0.003942749122333243 
184.098038 0.017067242776127464 
184.153015 0.0023764515257899002 
184.196228 0.0025384823116392113 
184.812622 0.0027005130974885228 
184.926285 0.0027005130974885228 
184.977707 0.002160410477990818 
185.018311 0.002592492573588982 
185.06897 0.0063732109100729135 
185.106934 0.2217661355657575 
185.281616 0.0024304617877396704 
185.302399 0.0023224412638401296 
185.408371 0.0024304617877396704 
185.986069 0.0023224412638401296 
186.109146 0.02111801242236025 
186.143539 0.002592492573588982 
186.330948 0.002484472049689441 
187.118073 0.004644882527680259 
187.798325 0.0023764515257899002 
187.858215 0.002484472049689441 
188.15567 0.002592492573588982 
188.601654 0.0027005130974885228 
189.909744 0.0030245746691871457 
190.280197 0.002592492573588982 
191.422546 0.002268431001890359 
191.457077 0.002268431001890359 
191.523178 0.0025384823116392113 
192.212402 0.003078584931136916 
192.460831 0.002268431001890359 
192.670731 0.0022144207399405888 
194.035141 0.002484472049689441 
194.09024 0.007183364839319471 
194.109085 0.002592492573588982 
194.870544 0.0032406157169862274 
195.08725 0.0044288414798811775 
195.652054 0.0028625438833378342 
196.07074 0.006319200648123143 
196.105392 0.004806913313529571 
197.100159 0.006265190386173373 
198.118118 0.006913313529570618 
199.588684 0.0023764515257899002 
199.647736 0.002160410477990818 
200.120483 0.002970564407237375 
200.791138 0.0027005130974885228 
200.97876 0.0031866054550364568 
201.087387 0.0024304617877396704 
201.194641 0.002970564407237375 
201.40361 0.0022144207399405888 
201.460236 0.0024304617877396704 
201.488358 0.0024304617877396704 
201.787933 0.0028085336213880636 
202.314163 0.0022144207399405888 
202.846039 0.0026465028355387526 
203.718613 0.0028625438833378342 
204.664978 0.0024304617877396704 
205.326111 0.0024304617877396704 
206.079712 0.0027005130974885228 
206.725937 0.0023764515257899002 
206.854736 0.0028085336213880636 
207.215576 0.002592492573588982 
208.742584 0.0025384823116392113 
209.094254 0.0022144207399405888 
209.946304 0.0028625438833378342 
209.986679 0.0027545233594382934 
210.275192 0.002484472049689441 
210.428192 0.002484472049689441 
210.682343 0.002592492573588982 
210.940369 0.0024304617877396704 
211.086746 0.26994328922495275 
211.123047 0.05206589251957872 
211.320236 0.0027005130974885228 
211.964066 0.0029165541452876045 
212.004639 0.0023224412638401296 
212.089432 0.036294896030245744 
212.128021 0.012530380772346746 
213.098907 0.025276802592492573 
213.554977 0.0026465028355387526 
214.102112 0.006535241695922225 
214.874588 0.0026465028355387526 
215.160599 0.0027545233594382934 
217.173874 0.0024304617877396704 
219.376297 0.002484472049689441 
221.994247 0.0023764515257899002 
222.325226 0.002970564407237375 
222.639114 0.0024304617877396704 
223.046951 0.002592492573588982 
223.623978 0.0028085336213880636 
223.644821 0.003456656764785309 
224.011078 0.0028625438833378342 
227.575989 0.0022144207399405888 
227.768188 0.0029165541452876045 
228.089706 0.0027545233594382934 
228.279114 0.0023224412638401296 
229.806274 0.0029165541452876045 
229.920944 0.0028085336213880636 
229.996399 0.0031325951930866866 
230.234924 0.002484472049689441 
230.376877 0.0027545233594382934 
231.595917 0.002268431001890359 
231.835266 0.0022144207399405888 
234.575607 0.002484472049689441 
235.620499 0.0026465028355387526 
235.709106 0.0023224412638401296 
237.099487 0.006643262219821766 
237.816101 0.0024304617877396704 
237.865219 0.0024304617877396704 
238.05864 0.003078584931136916 
238.098618 0.003078584931136916 
238.13176 0.014096678368890088 
238.599426 0.0024304617877396704 
239.077286 0.03186605455036457 
239.116867 0.019335673778017825 
239.821503 0.002268431001890359 
240.089661 0.0028625438833378342 
240.101059 0.002268431001890359 
240.111557 0.00588711855252498 
240.926208 0.0027005130974885228 
241.080078 0.004590872265730489 
241.566132 0.0027545233594382934 
241.736298 0.0026465028355387526 
244.240005 0.0027005130974885228 
245.501389 0.0031325951930866866 
245.53569 0.002592492573588982 
245.722855 0.0030245746691871457 
246.131729 0.002970564407237375 
246.903595 0.002160410477990818 
246.959885 0.003456656764785309 
247.83017 0.0023764515257899002 
248.218857 0.0023764515257899002 
248.287842 0.0028085336213880636 
248.802429 0.002484472049689441 
249.520203 0.002160410477990818 
249.826935 0.0022144207399405888 
250.138474 0.0030245746691871457 
250.506897 0.002592492573588982 
250.554153 0.002592492573588982 
250.695953 0.002592492573588982 
250.977417 0.0027545233594382934 
251.159409 0.002160410477990818 
251.185928 0.0022144207399405888 
251.364471 0.002160410477990818 
251.847504 0.002484472049689441 
251.983337 0.0023764515257899002 
252.11113 0.0057250877666756685 
253.111435 0.0023764515257899002 
253.188202 0.0032406157169862274 
253.218719 0.0024304617877396704 
253.346893 0.0031325951930866866 
253.676544 0.0022144207399405888 
253.739868 0.002268431001890359 
253.845749 0.002592492573588982 
253.890732 0.0033486362408857683 
253.941269 0.003888738860383473 
253.983231 0.0023224412638401296 
254.051727 0.004050769646232784 
254.076843 0.006643262219821766 
254.129486 1.0 
254.48349 0.0035106670267350797 
254.623627 0.0022144207399405888 
254.651093 0.009127734269511207 
254.763794 0.0025384823116392113 
254.931244 0.0025384823116392113 
255.034576 0.0026465028355387526 
255.088364 0.005833108290575209 
255.131943 0.20610315960032405 
256.13208 0.017553335133675397 
256.956268 0.003456656764785309 
257.149902 0.0030245746691871457 
259.501129 0.0023764515257899002 
262.788208 0.0027545233594382934 
265.098267 0.004158790170132325 
266.326508 0.002268431001890359 
273.123352 0.0026465028355387526 
278.675995 0.002592492573588982 
280.107544 0.0071293545773697 
280.594177 0.002484472049689441 
280.84317 0.0028085336213880636 
281.761169 0.0022144207399405888 
281.91153 0.002268431001890359 
282.124115 0.2607615446934918 
283.126312 0.05449635430731839 
283.544647 0.002592492573588982 
284.127258 0.004482851741830948 
304.402039 0.0035106670267350797 
310.111664 0.00356467728868485 
311.105652 0.002970564407237375 
327.144073 0.0030245746691871457 
415.195587 0.0024304617877396704 
429.164764 0.002268431001890359 
512.173767 0.0027545233594382934 
853.669495 0.0023224412638401296 
865.889832 0.0023764515257899002 
897.947388 0.0023224412638401296 
913.587036 0.0029165541452876045 
914.977173 0.002592492573588982 
915.76001 0.002268431001890359 
917.037292 0.0028085336213880636 
925.960938 0.0024304617877396704 
926.36676 0.0025384823116392113 
929.161438 0.0022144207399405888 
945.65686 0.002484472049689441 
948.578552 0.003996759384283014 
949.890747 0.0036186875506346206 
952.585571 0.0023224412638401296 
978.771667 0.002970564407237375 
979.656067 0.0027545233594382934 
980.815125 0.0028625438833378342 
983.48468 0.0022144207399405888 
994.130371 0.0029165541452876045 
999.666626 0.0031325951930866866 
END IONS

BEGIN IONS
PEPMASS=236.011
CHARGE=1+
MSLEVEL=2
SOURCE_INSTRUMENT=LC-ESI-Maxis HD qTOF
FILENAME=Pesticide_mix1_BA1_01_8691.mzXML
SEQ=*..*
IONMODE=positive
ORGANISM=GNPS-COLLECTIONS-PESTICIDES-POSITIVE
NAME=Pesticide1_Omethoate_C5H12NO4PS_ M+Na
PI=Dorrestein/Touboul
DATACOLLECTOR=lfnothias
SMILES=CNC(=O)CSP(=O)(OC)OC
INCHI=InChI=1S/C5H12NO4PS/c1-6-5(7)4-12-11(8,9-2)10-3/h4H2,1-3H3,(H,6,7)
INCHIAUX=N/A
PUBMED=n/a
SUBMITUSER=mwang87
LIBRARYQUALITY=1
SPECTRUMID=CCMSLIB00001058680
SCANS=239
COMPOUND_NAME=Pesticide1_Omethoate_C5H12NO4PS_
ADDUCT=[M+Na]+
PRECURSOR_MZ=236.011
PARENT_MASS=213.021782
INCHIKEY=PZXOQEXFMJCDPG-UHFFFAOYSA-N
72.041817 0.05052329596769909 
81.07341 0.010359666365616534 
92.948975 0.006906444243744356 
105.041618 0.010890931307443022 
105.073952 0.007278329703022898 
110.094055 0.0074908356797534935 
112.076065 0.007437709185570844 
121.030464 0.008659618551771768 
121.06881 0.01917866439993625 
127.014221 0.03543537161982681 
130.999512 0.011953461191096 
131.046463 0.007225203208840248 
132.089233 0.007862721139032035 
146.501251 0.010997184295808319 
148.999756 0.05206396429899591 
149.078827 0.006800191255379058 
150.926514 0.0067470647611964085 
152.952774 0.00812835360994528 
157.099152 0.008872124528502364 
161.991302 0.012272220156191893 
162.971008 0.010625298836529778 
169.9823 0.00860649205758912 
170.018845 0.0071189502204749506 
173.914886 0.008659618551771768 
175.980911 0.008500239069223823 
177.054535 0.04776071827020135 
178.061096 0.007437709185570844 
179.017578 0.00765021516230144 
181.097397 0.007065823726292302 
181.924652 0.007915847633214684 
187.074112 0.007703341656484088 
197.980225 0.014237900440949901 
226.900574 0.007437709185570844 
235.919495 0.008234606598310577 
236.01297 1.0 
236.124725 0.01243159963873984 
236.954727 0.010147160388885938 
237.014206 0.019869308824310684 
237.213989 0.006959570737927004 
243.099045 0.00998778090633799 
280.951782 0.009934654412155342 
295.419464 0.01243159963873984 
END IONS

